p cnf 315 3366
1 2 3 4 5 6 7 0
8 9 10 11 12 13 14 0
15 16 17 18 19 20 21 0
22 23 24 25 26 27 28 0
29 30 31 32 33 34 35 0
36 37 38 39 40 41 42 0
43 44 45 46 47 48 49 0
50 51 52 53 54 55 56 0
57 58 59 60 61 62 63 0
64 65 66 67 68 69 70 0
71 72 73 74 75 76 77 0
78 79 80 81 82 83 84 0
85 86 87 88 89 90 91 0
92 93 94 95 96 97 98 0
99 100 101 102 103 104 105 0
106 107 108 109 110 111 112 0
113 114 115 116 117 118 119 0
120 121 122 123 124 125 126 0
127 128 129 130 131 132 133 0
134 135 136 137 138 139 140 0
141 142 143 144 145 146 147 0
148 149 150 151 152 153 154 0
155 156 157 158 159 160 161 0
162 163 164 165 166 167 168 0
169 170 171 172 173 174 175 0
176 177 178 179 180 181 182 0
183 184 185 186 187 188 189 0
190 191 192 193 194 195 196 0
197 198 199 200 201 202 203 0
204 205 206 207 208 209 210 0
211 212 213 214 215 216 217 0
218 219 220 221 222 223 224 0
225 226 227 228 229 230 231 0
232 233 234 235 236 237 238 0
239 240 241 242 243 244 245 0
246 247 248 249 250 251 252 0
253 254 255 256 257 258 259 0
260 261 262 263 264 265 266 0
267 268 269 270 271 272 273 0
274 275 276 277 278 279 280 0
281 282 283 284 285 286 287 0
288 289 290 291 292 293 294 0
295 296 297 298 299 300 301 0
302 303 304 305 306 307 308 0
309 310 311 312 313 314 315 0
-1 -2 0
-1 -3 0
-1 -4 0
-1 -5 0
-1 -6 0
-1 -7 0
-2 -3 0
-2 -4 0
-2 -5 0
-2 -6 0
-2 -7 0
-3 -4 0
-3 -5 0
-3 -6 0
-3 -7 0
-4 -5 0
-4 -6 0
-4 -7 0
-5 -6 0
-5 -7 0
-6 -7 0
-8 -9 0
-8 -10 0
-8 -11 0
-8 -12 0
-8 -13 0
-8 -14 0
-9 -10 0
-9 -11 0
-9 -12 0
-9 -13 0
-9 -14 0
-10 -11 0
-10 -12 0
-10 -13 0
-10 -14 0
-11 -12 0
-11 -13 0
-11 -14 0
-12 -13 0
-12 -14 0
-13 -14 0
-15 -16 0
-15 -17 0
-15 -18 0
-15 -19 0
-15 -20 0
-15 -21 0
-16 -17 0
-16 -18 0
-16 -19 0
-16 -20 0
-16 -21 0
-17 -18 0
-17 -19 0
-17 -20 0
-17 -21 0
-18 -19 0
-18 -20 0
-18 -21 0
-19 -20 0
-19 -21 0
-20 -21 0
-22 -23 0
-22 -24 0
-22 -25 0
-22 -26 0
-22 -27 0
-22 -28 0
-23 -24 0
-23 -25 0
-23 -26 0
-23 -27 0
-23 -28 0
-24 -25 0
-24 -26 0
-24 -27 0
-24 -28 0
-25 -26 0
-25 -27 0
-25 -28 0
-26 -27 0
-26 -28 0
-27 -28 0
-29 -30 0
-29 -31 0
-29 -32 0
-29 -33 0
-29 -34 0
-29 -35 0
-30 -31 0
-30 -32 0
-30 -33 0
-30 -34 0
-30 -35 0
-31 -32 0
-31 -33 0
-31 -34 0
-31 -35 0
-32 -33 0
-32 -34 0
-32 -35 0
-33 -34 0
-33 -35 0
-34 -35 0
-36 -37 0
-36 -38 0
-36 -39 0
-36 -40 0
-36 -41 0
-36 -42 0
-37 -38 0
-37 -39 0
-37 -40 0
-37 -41 0
-37 -42 0
-38 -39 0
-38 -40 0
-38 -41 0
-38 -42 0
-39 -40 0
-39 -41 0
-39 -42 0
-40 -41 0
-40 -42 0
-41 -42 0
-43 -44 0
-43 -45 0
-43 -46 0
-43 -47 0
-43 -48 0
-43 -49 0
-44 -45 0
-44 -46 0
-44 -47 0
-44 -48 0
-44 -49 0
-45 -46 0
-45 -47 0
-45 -48 0
-45 -49 0
-46 -47 0
-46 -48 0
-46 -49 0
-47 -48 0
-47 -49 0
-48 -49 0
-50 -51 0
-50 -52 0
-50 -53 0
-50 -54 0
-50 -55 0
-50 -56 0
-51 -52 0
-51 -53 0
-51 -54 0
-51 -55 0
-51 -56 0
-52 -53 0
-52 -54 0
-52 -55 0
-52 -56 0
-53 -54 0
-53 -55 0
-53 -56 0
-54 -55 0
-54 -56 0
-55 -56 0
-57 -58 0
-57 -59 0
-57 -60 0
-57 -61 0
-57 -62 0
-57 -63 0
-58 -59 0
-58 -60 0
-58 -61 0
-58 -62 0
-58 -63 0
-59 -60 0
-59 -61 0
-59 -62 0
-59 -63 0
-60 -61 0
-60 -62 0
-60 -63 0
-61 -62 0
-61 -63 0
-62 -63 0
-64 -65 0
-64 -66 0
-64 -67 0
-64 -68 0
-64 -69 0
-64 -70 0
-65 -66 0
-65 -67 0
-65 -68 0
-65 -69 0
-65 -70 0
-66 -67 0
-66 -68 0
-66 -69 0
-66 -70 0
-67 -68 0
-67 -69 0
-67 -70 0
-68 -69 0
-68 -70 0
-69 -70 0
-71 -72 0
-71 -73 0
-71 -74 0
-71 -75 0
-71 -76 0
-71 -77 0
-72 -73 0
-72 -74 0
-72 -75 0
-72 -76 0
-72 -77 0
-73 -74 0
-73 -75 0
-73 -76 0
-73 -77 0
-74 -75 0
-74 -76 0
-74 -77 0
-75 -76 0
-75 -77 0
-76 -77 0
-78 -79 0
-78 -80 0
-78 -81 0
-78 -82 0
-78 -83 0
-78 -84 0
-79 -80 0
-79 -81 0
-79 -82 0
-79 -83 0
-79 -84 0
-80 -81 0
-80 -82 0
-80 -83 0
-80 -84 0
-81 -82 0
-81 -83 0
-81 -84 0
-82 -83 0
-82 -84 0
-83 -84 0
-85 -86 0
-85 -87 0
-85 -88 0
-85 -89 0
-85 -90 0
-85 -91 0
-86 -87 0
-86 -88 0
-86 -89 0
-86 -90 0
-86 -91 0
-87 -88 0
-87 -89 0
-87 -90 0
-87 -91 0
-88 -89 0
-88 -90 0
-88 -91 0
-89 -90 0
-89 -91 0
-90 -91 0
-92 -93 0
-92 -94 0
-92 -95 0
-92 -96 0
-92 -97 0
-92 -98 0
-93 -94 0
-93 -95 0
-93 -96 0
-93 -97 0
-93 -98 0
-94 -95 0
-94 -96 0
-94 -97 0
-94 -98 0
-95 -96 0
-95 -97 0
-95 -98 0
-96 -97 0
-96 -98 0
-97 -98 0
-99 -100 0
-99 -101 0
-99 -102 0
-99 -103 0
-99 -104 0
-99 -105 0
-100 -101 0
-100 -102 0
-100 -103 0
-100 -104 0
-100 -105 0
-101 -102 0
-101 -103 0
-101 -104 0
-101 -105 0
-102 -103 0
-102 -104 0
-102 -105 0
-103 -104 0
-103 -105 0
-104 -105 0
-106 -107 0
-106 -108 0
-106 -109 0
-106 -110 0
-106 -111 0
-106 -112 0
-107 -108 0
-107 -109 0
-107 -110 0
-107 -111 0
-107 -112 0
-108 -109 0
-108 -110 0
-108 -111 0
-108 -112 0
-109 -110 0
-109 -111 0
-109 -112 0
-110 -111 0
-110 -112 0
-111 -112 0
-113 -114 0
-113 -115 0
-113 -116 0
-113 -117 0
-113 -118 0
-113 -119 0
-114 -115 0
-114 -116 0
-114 -117 0
-114 -118 0
-114 -119 0
-115 -116 0
-115 -117 0
-115 -118 0
-115 -119 0
-116 -117 0
-116 -118 0
-116 -119 0
-117 -118 0
-117 -119 0
-118 -119 0
-120 -121 0
-120 -122 0
-120 -123 0
-120 -124 0
-120 -125 0
-120 -126 0
-121 -122 0
-121 -123 0
-121 -124 0
-121 -125 0
-121 -126 0
-122 -123 0
-122 -124 0
-122 -125 0
-122 -126 0
-123 -124 0
-123 -125 0
-123 -126 0
-124 -125 0
-124 -126 0
-125 -126 0
-127 -128 0
-127 -129 0
-127 -130 0
-127 -131 0
-127 -132 0
-127 -133 0
-128 -129 0
-128 -130 0
-128 -131 0
-128 -132 0
-128 -133 0
-129 -130 0
-129 -131 0
-129 -132 0
-129 -133 0
-130 -131 0
-130 -132 0
-130 -133 0
-131 -132 0
-131 -133 0
-132 -133 0
-134 -135 0
-134 -136 0
-134 -137 0
-134 -138 0
-134 -139 0
-134 -140 0
-135 -136 0
-135 -137 0
-135 -138 0
-135 -139 0
-135 -140 0
-136 -137 0
-136 -138 0
-136 -139 0
-136 -140 0
-137 -138 0
-137 -139 0
-137 -140 0
-138 -139 0
-138 -140 0
-139 -140 0
-141 -142 0
-141 -143 0
-141 -144 0
-141 -145 0
-141 -146 0
-141 -147 0
-142 -143 0
-142 -144 0
-142 -145 0
-142 -146 0
-142 -147 0
-143 -144 0
-143 -145 0
-143 -146 0
-143 -147 0
-144 -145 0
-144 -146 0
-144 -147 0
-145 -146 0
-145 -147 0
-146 -147 0
-148 -149 0
-148 -150 0
-148 -151 0
-148 -152 0
-148 -153 0
-148 -154 0
-149 -150 0
-149 -151 0
-149 -152 0
-149 -153 0
-149 -154 0
-150 -151 0
-150 -152 0
-150 -153 0
-150 -154 0
-151 -152 0
-151 -153 0
-151 -154 0
-152 -153 0
-152 -154 0
-153 -154 0
-155 -156 0
-155 -157 0
-155 -158 0
-155 -159 0
-155 -160 0
-155 -161 0
-156 -157 0
-156 -158 0
-156 -159 0
-156 -160 0
-156 -161 0
-157 -158 0
-157 -159 0
-157 -160 0
-157 -161 0
-158 -159 0
-158 -160 0
-158 -161 0
-159 -160 0
-159 -161 0
-160 -161 0
-162 -163 0
-162 -164 0
-162 -165 0
-162 -166 0
-162 -167 0
-162 -168 0
-163 -164 0
-163 -165 0
-163 -166 0
-163 -167 0
-163 -168 0
-164 -165 0
-164 -166 0
-164 -167 0
-164 -168 0
-165 -166 0
-165 -167 0
-165 -168 0
-166 -167 0
-166 -168 0
-167 -168 0
-169 -170 0
-169 -171 0
-169 -172 0
-169 -173 0
-169 -174 0
-169 -175 0
-170 -171 0
-170 -172 0
-170 -173 0
-170 -174 0
-170 -175 0
-171 -172 0
-171 -173 0
-171 -174 0
-171 -175 0
-172 -173 0
-172 -174 0
-172 -175 0
-173 -174 0
-173 -175 0
-174 -175 0
-176 -177 0
-176 -178 0
-176 -179 0
-176 -180 0
-176 -181 0
-176 -182 0
-177 -178 0
-177 -179 0
-177 -180 0
-177 -181 0
-177 -182 0
-178 -179 0
-178 -180 0
-178 -181 0
-178 -182 0
-179 -180 0
-179 -181 0
-179 -182 0
-180 -181 0
-180 -182 0
-181 -182 0
-183 -184 0
-183 -185 0
-183 -186 0
-183 -187 0
-183 -188 0
-183 -189 0
-184 -185 0
-184 -186 0
-184 -187 0
-184 -188 0
-184 -189 0
-185 -186 0
-185 -187 0
-185 -188 0
-185 -189 0
-186 -187 0
-186 -188 0
-186 -189 0
-187 -188 0
-187 -189 0
-188 -189 0
-190 -191 0
-190 -192 0
-190 -193 0
-190 -194 0
-190 -195 0
-190 -196 0
-191 -192 0
-191 -193 0
-191 -194 0
-191 -195 0
-191 -196 0
-192 -193 0
-192 -194 0
-192 -195 0
-192 -196 0
-193 -194 0
-193 -195 0
-193 -196 0
-194 -195 0
-194 -196 0
-195 -196 0
-197 -198 0
-197 -199 0
-197 -200 0
-197 -201 0
-197 -202 0
-197 -203 0
-198 -199 0
-198 -200 0
-198 -201 0
-198 -202 0
-198 -203 0
-199 -200 0
-199 -201 0
-199 -202 0
-199 -203 0
-200 -201 0
-200 -202 0
-200 -203 0
-201 -202 0
-201 -203 0
-202 -203 0
-204 -205 0
-204 -206 0
-204 -207 0
-204 -208 0
-204 -209 0
-204 -210 0
-205 -206 0
-205 -207 0
-205 -208 0
-205 -209 0
-205 -210 0
-206 -207 0
-206 -208 0
-206 -209 0
-206 -210 0
-207 -208 0
-207 -209 0
-207 -210 0
-208 -209 0
-208 -210 0
-209 -210 0
-211 -212 0
-211 -213 0
-211 -214 0
-211 -215 0
-211 -216 0
-211 -217 0
-212 -213 0
-212 -214 0
-212 -215 0
-212 -216 0
-212 -217 0
-213 -214 0
-213 -215 0
-213 -216 0
-213 -217 0
-214 -215 0
-214 -216 0
-214 -217 0
-215 -216 0
-215 -217 0
-216 -217 0
-218 -219 0
-218 -220 0
-218 -221 0
-218 -222 0
-218 -223 0
-218 -224 0
-219 -220 0
-219 -221 0
-219 -222 0
-219 -223 0
-219 -224 0
-220 -221 0
-220 -222 0
-220 -223 0
-220 -224 0
-221 -222 0
-221 -223 0
-221 -224 0
-222 -223 0
-222 -224 0
-223 -224 0
-225 -226 0
-225 -227 0
-225 -228 0
-225 -229 0
-225 -230 0
-225 -231 0
-226 -227 0
-226 -228 0
-226 -229 0
-226 -230 0
-226 -231 0
-227 -228 0
-227 -229 0
-227 -230 0
-227 -231 0
-228 -229 0
-228 -230 0
-228 -231 0
-229 -230 0
-229 -231 0
-230 -231 0
-232 -233 0
-232 -234 0
-232 -235 0
-232 -236 0
-232 -237 0
-232 -238 0
-233 -234 0
-233 -235 0
-233 -236 0
-233 -237 0
-233 -238 0
-234 -235 0
-234 -236 0
-234 -237 0
-234 -238 0
-235 -236 0
-235 -237 0
-235 -238 0
-236 -237 0
-236 -238 0
-237 -238 0
-239 -240 0
-239 -241 0
-239 -242 0
-239 -243 0
-239 -244 0
-239 -245 0
-240 -241 0
-240 -242 0
-240 -243 0
-240 -244 0
-240 -245 0
-241 -242 0
-241 -243 0
-241 -244 0
-241 -245 0
-242 -243 0
-242 -244 0
-242 -245 0
-243 -244 0
-243 -245 0
-244 -245 0
-246 -247 0
-246 -248 0
-246 -249 0
-246 -250 0
-246 -251 0
-246 -252 0
-247 -248 0
-247 -249 0
-247 -250 0
-247 -251 0
-247 -252 0
-248 -249 0
-248 -250 0
-248 -251 0
-248 -252 0
-249 -250 0
-249 -251 0
-249 -252 0
-250 -251 0
-250 -252 0
-251 -252 0
-253 -254 0
-253 -255 0
-253 -256 0
-253 -257 0
-253 -258 0
-253 -259 0
-254 -255 0
-254 -256 0
-254 -257 0
-254 -258 0
-254 -259 0
-255 -256 0
-255 -257 0
-255 -258 0
-255 -259 0
-256 -257 0
-256 -258 0
-256 -259 0
-257 -258 0
-257 -259 0
-258 -259 0
-260 -261 0
-260 -262 0
-260 -263 0
-260 -264 0
-260 -265 0
-260 -266 0
-261 -262 0
-261 -263 0
-261 -264 0
-261 -265 0
-261 -266 0
-262 -263 0
-262 -264 0
-262 -265 0
-262 -266 0
-263 -264 0
-263 -265 0
-263 -266 0
-264 -265 0
-264 -266 0
-265 -266 0
-267 -268 0
-267 -269 0
-267 -270 0
-267 -271 0
-267 -272 0
-267 -273 0
-268 -269 0
-268 -270 0
-268 -271 0
-268 -272 0
-268 -273 0
-269 -270 0
-269 -271 0
-269 -272 0
-269 -273 0
-270 -271 0
-270 -272 0
-270 -273 0
-271 -272 0
-271 -273 0
-272 -273 0
-274 -275 0
-274 -276 0
-274 -277 0
-274 -278 0
-274 -279 0
-274 -280 0
-275 -276 0
-275 -277 0
-275 -278 0
-275 -279 0
-275 -280 0
-276 -277 0
-276 -278 0
-276 -279 0
-276 -280 0
-277 -278 0
-277 -279 0
-277 -280 0
-278 -279 0
-278 -280 0
-279 -280 0
-281 -282 0
-281 -283 0
-281 -284 0
-281 -285 0
-281 -286 0
-281 -287 0
-282 -283 0
-282 -284 0
-282 -285 0
-282 -286 0
-282 -287 0
-283 -284 0
-283 -285 0
-283 -286 0
-283 -287 0
-284 -285 0
-284 -286 0
-284 -287 0
-285 -286 0
-285 -287 0
-286 -287 0
-288 -289 0
-288 -290 0
-288 -291 0
-288 -292 0
-288 -293 0
-288 -294 0
-289 -290 0
-289 -291 0
-289 -292 0
-289 -293 0
-289 -294 0
-290 -291 0
-290 -292 0
-290 -293 0
-290 -294 0
-291 -292 0
-291 -293 0
-291 -294 0
-292 -293 0
-292 -294 0
-293 -294 0
-295 -296 0
-295 -297 0
-295 -298 0
-295 -299 0
-295 -300 0
-295 -301 0
-296 -297 0
-296 -298 0
-296 -299 0
-296 -300 0
-296 -301 0
-297 -298 0
-297 -299 0
-297 -300 0
-297 -301 0
-298 -299 0
-298 -300 0
-298 -301 0
-299 -300 0
-299 -301 0
-300 -301 0
-302 -303 0
-302 -304 0
-302 -305 0
-302 -306 0
-302 -307 0
-302 -308 0
-303 -304 0
-303 -305 0
-303 -306 0
-303 -307 0
-303 -308 0
-304 -305 0
-304 -306 0
-304 -307 0
-304 -308 0
-305 -306 0
-305 -307 0
-305 -308 0
-306 -307 0
-306 -308 0
-307 -308 0
-309 -310 0
-309 -311 0
-309 -312 0
-309 -313 0
-309 -314 0
-309 -315 0
-310 -311 0
-310 -312 0
-310 -313 0
-310 -314 0
-310 -315 0
-311 -312 0
-311 -313 0
-311 -314 0
-311 -315 0
-312 -313 0
-312 -314 0
-312 -315 0
-313 -314 0
-313 -315 0
-314 -315 0
-3 -39 0
-7 -40 0
-2 -37 0
-7 -42 0
-1 -36 0
-2 -36 0
-4 -41 0
-5 -41 0
-5 -37 0
-6 -39 0
-5 -40 0
-4 -37 0
-1 -42 0
-1 -40 0
-5 -39 0
-6 -40 0
-2 -42 0
-5 -42 0
-1 -41 0
-4 -39 0
-7 -38 0
-5 -38 0
-2 -38 0
-7 -39 0
-1 -85 0
-7 -85 0
-1 -88 0
-5 -87 0
-1 -89 0
-7 -90 0
-3 -86 0
-4 -86 0
-5 -88 0
-3 -85 0
-5 -85 0
-6 -89 0
-4 -88 0
-2 -85 0
-6 -91 0
-5 -89 0
-3 -91 0
-1 -87 0
-6 -90 0
-6 -87 0
-7 -88 0
-3 -88 0
-4 -87 0
-4 -90 0
-1 -234 0
-4 -232 0
-7 -236 0
-2 -237 0
-2 -232 0
-1 -235 0
-4 -233 0
-1 -238 0
-5 -234 0
-3 -232 0
-7 -238 0
-3 -237 0
-7 -237 0
-2 -234 0
-2 -238 0
-5 -237 0
-6 -237 0
-7 -235 0
-3 -238 0
-2 -235 0
-1 -233 0
-1 -232 0
-6 -232 0
-1 -236 0
-9 -54 0
-14 -56 0
-12 -53 0
-9 -50 0
-11 -54 0
-11 -50 0
-11 -53 0
-11 -56 0
-8 -50 0
-10 -50 0
-8 -53 0
-13 -51 0
-12 -56 0
-11 -51 0
-14 -53 0
-10 -56 0
-13 -54 0
-10 -53 0
-12 -51 0
-14 -54 0
-9 -55 0
-13 -55 0
-10 -51 0
-9 -51 0
-13 -59 0
-10 -58 0
-14 -61 0
-9 -61 0
-12 -61 0
-14 -59 0
-13 -63 0
-8 -61 0
-8 -58 0
-14 -62 0
-10 -61 0
-8 -59 0
-10 -57 0
-8 -63 0
-13 -60 0
-12 -59 0
-9 -63 0
-12 -60 0
-13 -62 0
-8 -60 0
-9 -59 0
-14 -60 0
-13 -61 0
-14 -57 0
-11 -68 0
-9 -68 0
-14 -68 0
-8 -65 0
-9 -67 0
-12 -66 0
-13 -70 0
-10 -68 0
-8 -69 0
-12 -64 0
-12 -70 0
-12 -65 0
-9 -66 0
-10 -70 0
-12 -68 0
-9 -65 0
-10 -65 0
-13 -65 0
-11 -67 0
-11 -69 0
-9 -70 0
-8 -64 0
-10 -67 0
-8 -67 0
-14 -76 0
-14 -75 0
-10 -77 0
-10 -73 0
-8 -76 0
-10 -71 0
-12 -72 0
-14 -74 0
-11 -71 0
-8 -75 0
-11 -75 0
-8 -77 0
-9 -74 0
-13 -75 0
-10 -75 0
-13 -76 0
-8 -72 0
-12 -77 0
-12 -75 0
-11 -73 0
-9 -77 0
-13 -72 0
-8 -74 0
-14 -77 0
-14 -125 0
-10 -120 0
-13 -126 0
-13 -121 0
-13 -125 0
-9 -125 0
-9 -123 0
-11 -122 0
-11 -121 0
-9 -121 0
-14 -123 0
-14 -121 0
-8 -126 0
-10 -123 0
-10 -126 0
-11 -126 0
-10 -125 0
-9 -122 0
-8 -122 0
-8 -123 0
-13 -124 0
-10 -124 0
-11 -120 0
-14 -124 0
-11 -137 0
-12 -136 0
-8 -140 0
-10 -136 0
-11 -138 0
-14 -136 0
-14 -138 0
-14 -137 0
-13 -136 0
-9 -139 0
-13 -138 0
-10 -139 0
-13 -140 0
-13 -135 0
-9 -136 0
-13 -137 0
-14 -135 0
-10 -138 0
-10 -137 0
-8 -137 0
-14 -140 0
-12 -134 0
-11 -136 0
-8 -134 0
-13 -162 0
-8 -162 0
-14 -165 0
-9 -165 0
-12 -168 0
-13 -168 0
-11 -162 0
-14 -168 0
-8 -164 0
-8 -168 0
-11 -164 0
-8 -167 0
-14 -164 0
-10 -168 0
-14 -162 0
-12 -166 0
-11 -168 0
-9 -166 0
-13 -164 0
-13 -163 0
-12 -167 0
-8 -163 0
-9 -168 0
-8 -165 0
-8 -169 0
-14 -171 0
-11 -174 0
-11 -173 0
-13 -173 0
-9 -171 0
-9 -169 0
-12 -171 0
-11 -170 0
-14 -174 0
-12 -170 0
-13 -172 0
-8 -174 0
-14 -172 0
-8 -175 0
-10 -170 0
-12 -169 0
-9 -174 0
-12 -173 0
-13 -171 0
-11 -171 0
-9 -175 0
-13 -170 0
-8 -173 0
-11 -179 0
-9 -176 0
-12 -182 0
-13 -177 0
-10 -180 0
-10 -181 0
-9 -179 0
-8 -177 0
-8 -176 0
-9 -182 0
-13 -181 0
-9 -177 0
-10 -179 0
-8 -180 0
-10 -176 0
-10 -182 0
-8 -182 0
-11 -182 0
-14 -182 0
-13 -176 0
-14 -176 0
-11 -180 0
-11 -177 0
-8 -181 0
-12 -274 0
-13 -274 0
-14 -276 0
-9 -279 0
-9 -277 0
-12 -280 0
-9 -275 0
-10 -275 0
-14 -278 0
-8 -274 0
-14 -275 0
-13 -280 0
-13 -278 0
-9 -276 0
-14 -279 0
-8 -276 0
-14 -280 0
-13 -277 0
-8 -278 0
-11 -279 0
-12 -279 0
-10 -274 0
-13 -279 0
-12 -278 0
-12 -297 0
-11 -297 0
-14 -296 0
-12 -298 0
-10 -295 0
-12 -300 0
-9 -299 0
-9 -300 0
-12 -301 0
-11 -296 0
-8 -300 0
-11 -298 0
-8 -301 0
-11 -300 0
-10 -300 0
-13 -300 0
-13 -295 0
-10 -301 0
-11 -301 0
-9 -298 0
-9 -301 0
-13 -301 0
-8 -299 0
-8 -295 0
-19 -100 0
-15 -103 0
-20 -102 0
-17 -105 0
-15 -99 0
-17 -102 0
-21 -101 0
-15 -105 0
-16 -104 0
-18 -104 0
-21 -103 0
-19 -104 0
-18 -101 0
-18 -103 0
-18 -99 0
-19 -99 0
-17 -99 0
-16 -103 0
-20 -100 0
-21 -99 0
-18 -102 0
-21 -102 0
-15 -102 0
-15 -100 0
-17 -133 0
-15 -133 0
-21 -127 0
-19 -131 0
-17 -130 0
-16 -132 0
-19 -128 0
-20 -130 0
-16 -129 0
-17 -131 0
-15 -130 0
-20 -129 0
-21 -128 0
-15 -132 0
-18 -132 0
-21 -132 0
-18 -128 0
-16 -127 0
-15 -128 0
-17 -132 0
-18 -131 0
-21 -131 0
-21 -129 0
-17 -129 0
-20 -167 0
-19 -167 0
-16 -164 0
-19 -162 0
-20 -165 0
-17 -164 0
-21 -166 0
-20 -164 0
-15 -167 0
-15 -162 0
-17 -168 0
-18 -165 0
-21 -164 0
-20 -163 0
-18 -168 0
-17 -165 0
-15 -163 0
-17 -167 0
-21 -163 0
-18 -163 0
-21 -162 0
-18 -166 0
-17 -163 0
-16 -166 0
-19 -213 0
-20 -215 0
-20 -213 0
-15 -215 0
-18 -213 0
-16 -211 0
-20 -214 0
-15 -212 0
-19 -215 0
-21 -212 0
-17 -216 0
-20 -211 0
-15 -217 0
-19 -217 0
-21 -213 0
-21 -217 0
-19 -212 0
-18 -212 0
-21 -216 0
-16 -215 0
-16 -217 0
-19 -211 0
-16 -212 0
-16 -216 0
-18 -231 0
-18 -227 0
-18 -228 0
-16 -225 0
-19 -229 0
-18 -229 0
-21 -226 0
-16 -230 0
-18 -225 0
-16 -227 0
-19 -231 0
-18 -226 0
-20 -229 0
-15 -229 0
-15 -230 0
-16 -231 0
-19 -226 0
-15 -231 0
-19 -225 0
-20 -225 0
-20 -226 0
-16 -228 0
-21 -228 0
-19 -227 0
-20 -287 0
-20 -282 0
-17 -287 0
-19 -286 0
-18 -286 0
-17 -284 0
-18 -285 0
-16 -281 0
-17 -286 0
-19 -282 0
-20 -284 0
-18 -283 0
-19 -285 0
-15 -281 0
-15 -283 0
-17 -281 0
-15 -286 0
-17 -283 0
-20 -283 0
-16 -287 0
-15 -284 0
-21 -281 0
-20 -285 0
-18 -284 0
-24 -61 0
-25 -61 0
-28 -57 0
-24 -57 0
-23 -59 0
-25 -62 0
-25 -63 0
-23 -58 0
-24 -58 0
-26 -61 0
-27 -60 0
-27 -59 0
-23 -63 0
-22 -57 0
-23 -62 0
-28 -60 0
-27 -61 0
-25 -57 0
-27 -58 0
-23 -61 0
-26 -59 0
-26 -63 0
-26 -57 0
-27 -57 0
-25 -73 0
-25 -75 0
-23 -73 0
-24 -77 0
-22 -74 0
-25 -72 0
-24 -74 0
-24 -75 0
-26 -71 0
-26 -76 0
-22 -77 0
-24 -73 0
-28 -74 0
-27 -74 0
-24 -72 0
-27 -71 0
-26 -73 0
-23 -76 0
-26 -72 0
-26 -75 0
-24 -71 0
-25 -77 0
-25 -76 0
-22 -75 0
-24 -149 0
-22 -153 0
-27 -150 0
-24 -152 0
-24 -154 0
-27 -153 0
-24 -151 0
-28 -153 0
-24 -150 0
-27 -152 0
-26 -152 0
-23 -154 0
-23 -152 0
-26 -150 0
-28 -150 0
-23 -153 0
-22 -152 0
-27 -149 0
-24 -148 0
-26 -153 0
-28 -152 0
-22 -148 0
-23 -148 0
-28 -151 0
-27 -184 0
-24 -188 0
-24 -189 0
-24 -186 0
-22 -184 0
-28 -185 0
-26 -188 0
-23 -183 0
-26 -187 0
-23 -184 0
-22 -189 0
-24 -185 0
-25 -187 0
-25 -183 0
-22 -185 0
-25 -188 0
-28 -189 0
-26 -184 0
-25 -184 0
-27 -189 0
-27 -187 0
-23 -186 0
-22 -186 0
-22 -188 0
-24 -261 0
-22 -263 0
-28 -260 0
-25 -260 0
-27 -265 0
-25 -263 0
-23 -265 0
-25 -261 0
-22 -261 0
-28 -264 0
-26 -261 0
-23 -260 0
-27 -263 0
-24 -264 0
-25 -262 0
-23 -263 0
-26 -266 0
-27 -261 0
-25 -266 0
-25 -265 0
-26 -264 0
-22 -260 0
-28 -263 0
-24 -262 0
-27 -292 0
-26 -294 0
-25 -290 0
-22 -291 0
-26 -288 0
-25 -294 0
-24 -289 0
-23 -294 0
-26 -293 0
-27 -291 0
-28 -289 0
-22 -293 0
-22 -289 0
-25 -293 0
-25 -292 0
-26 -291 0
-28 -288 0
-28 -294 0
-23 -288 0
-27 -294 0
-24 -290 0
-26 -289 0
-23 -292 0
-24 -288 0
-36 -93 0
-42 -95 0
-39 -94 0
-42 -96 0
-40 -92 0
-36 -94 0
-42 -98 0
-42 -93 0
-37 -98 0
-38 -97 0
-42 -97 0
-40 -93 0
-41 -97 0
-37 -93 0
-41 -96 0
-41 -92 0
-37 -96 0
-39 -97 0
-36 -96 0
-40 -98 0
-40 -96 0
-36 -95 0
-38 -94 0
-39 -98 0
-36 -147 0
-42 -147 0
-38 -146 0
-38 -143 0
-39 -144 0
-42 -144 0
-41 -144 0
-42 -145 0
-40 -144 0
-42 -146 0
-39 -146 0
-41 -145 0
-41 -146 0
-37 -144 0
-36 -146 0
-37 -147 0
-37 -145 0
-36 -143 0
-39 -141 0
-37 -143 0
-42 -142 0
-39 -147 0
-38 -142 0
-42 -141 0
-39 -162 0
-38 -162 0
-42 -163 0
-39 -166 0
-41 -167 0
-40 -165 0
-36 -166 0
-41 -164 0
-37 -166 0
-41 -165 0
-36 -162 0
-38 -167 0
-40 -163 0
-40 -168 0
-42 -165 0
-42 -168 0
-41 -166 0
-42 -167 0
-36 -164 0
-36 -167 0
-37 -164 0
-39 -165 0
-37 -167 0
-39 -163 0
-36 -186 0
-41 -184 0
-42 -183 0
-40 -185 0
-38 -188 0
-42 -189 0
-37 -183 0
-40 -187 0
-39 -183 0
-40 -186 0
-39 -187 0
-42 -188 0
-41 -187 0
-37 -187 0
-42 -185 0
-36 -187 0
-37 -188 0
-38 -186 0
-42 -186 0
-40 -189 0
-40 -183 0
-37 -186 0
-41 -188 0
-40 -184 0
-41 -305 0
-40 -307 0
-38 -307 0
-41 -307 0
-40 -306 0
-41 -306 0
-38 -306 0
-40 -303 0
-39 -303 0
-39 -304 0
-42 -303 0
-40 -308 0
-38 -305 0
-37 -304 0
-36 -305 0
-41 -304 0
-40 -304 0
-38 -308 0
-36 -304 0
-39 -302 0
-41 -302 0
-37 -308 0
-37 -302 0
-40 -305 0
-43 -84 0
-47 -82 0
-46 -80 0
-48 -78 0
-44 -80 0
-43 -82 0
-45 -82 0
-47 -78 0
-44 -82 0
-48 -83 0
-45 -83 0
-48 -80 0
-47 -81 0
-43 -80 0
-48 -81 0
-48 -79 0
-44 -81 0
-49 -79 0
-47 -83 0
-45 -80 0
-46 -84 0
-44 -83 0
-49 -80 0
-45 -79 0
-49 -106 0
-45 -111 0
-45 -112 0
-47 -108 0
-44 -110 0
-49 -111 0
-44 -106 0
-48 -108 0
-46 -108 0
-44 -112 0
-49 -110 0
-48 -110 0
-48 -106 0
-46 -107 0
-45 -107 0
-46 -111 0
-43 -107 0
-45 -106 0
-45 -110 0
-43 -108 0
-46 -110 0
-47 -109 0
-49 -108 0
-46 -109 0
-45 -142 0
-44 -141 0
-48 -141 0
-49 -147 0
-45 -141 0
-43 -144 0
-46 -145 0
-48 -145 0
-49 -146 0
-48 -146 0
-46 -147 0
-47 -142 0
-45 -145 0
-44 -147 0
-43 -147 0
-44 -146 0
-43 -143 0
-46 -142 0
-43 -141 0
-43 -142 0
-49 -143 0
-44 -144 0
-46 -141 0
-49 -141 0
-46 -153 0
-47 -154 0
-49 -148 0
-46 -148 0
-44 -152 0
-45 -154 0
-49 -154 0
-48 -149 0
-45 -150 0
-49 -153 0
-47 -153 0
-46 -149 0
-49 -149 0
-45 -152 0
-48 -153 0
-44 -154 0
-47 -148 0
-47 -151 0
-44 -153 0
-47 -149 0
-43 -151 0
-48 -150 0
-43 -149 0
-49 -151 0
-49 -175 0
-47 -173 0
-43 -172 0
-44 -172 0
-48 -173 0
-49 -173 0
-47 -174 0
-45 -169 0
-45 -172 0
-44 -170 0
-43 -175 0
-43 -171 0
-47 -172 0
-49 -172 0
-48 -172 0
-47 -170 0
-43 -173 0
-49 -171 0
-47 -175 0
-46 -169 0
-49 -169 0
-46 -171 0
-46 -172 0
-45 -175 0
-48 -224 0
-47 -222 0
-49 -219 0
-45 -220 0
-46 -221 0
-43 -221 0
-47 -218 0
-44 -218 0
-48 -220 0
-48 -223 0
-47 -220 0
-45 -221 0
-49 -218 0
-48 -222 0
-44 -222 0
-45 -219 0
-47 -219 0
-43 -220 0
-45 -218 0
-43 -218 0
-46 -218 0
-43 -219 0
-49 -223 0
-45 -224 0
-55 -73 0
-50 -72 0
-54 -76 0
-53 -73 0
-50 -76 0
-52 -77 0
-50 -74 0
-51 -72 0
-55 -72 0
-56 -74 0
-52 -75 0
-56 -75 0
-55 -75 0
-51 -71 0
-52 -73 0
-51 -77 0
-53 -74 0
-54 -77 0
-52 -76 0
-50 -77 0
-51 -75 0
-50 -73 0
-50 -75 0
-55 -76 0
-51 -198 0
-52 -201 0
-50 -197 0
-51 -201 0
-50 -203 0
-54 -198 0
-52 -203 0
-51 -199 0
-51 -202 0
-55 -201 0
-56 -202 0
-55 -198 0
-51 -203 0
-54 -203 0
-52 -197 0
-56 -197 0
-50 -199 0
-53 -200 0
-55 -200 0
-55 -203 0
-53 -201 0
-56 -198 0
-52 -200 0
-54 -197 0
-57 -77 0
-57 -75 0
-59 -71 0
-58 -76 0
-62 -72 0
-59 -77 0
-62 -76 0
-59 -73 0
-63 -74 0
-60 -72 0
-61 -74 0
-60 -71 0
-59 -75 0
-63 -71 0
-58 -74 0
-62 -75 0
-60 -73 0
-61 -77 0
-60 -75 0
-58 -71 0
-57 -72 0
-63 -73 0
-61 -75 0
-63 -72 0
-60 -173 0
-59 -169 0
-60 -169 0
-61 -171 0
-60 -172 0
-59 -171 0
-57 -173 0
-62 -173 0
-59 -174 0
-58 -170 0
-59 -172 0
-58 -172 0
-60 -174 0
-60 -175 0
-58 -175 0
-57 -175 0
-60 -171 0
-58 -173 0
-61 -169 0
-62 -171 0
-61 -170 0
-62 -174 0
-57 -174 0
-61 -174 0
-60 -181 0
-59 -176 0
-63 -179 0
-57 -182 0
-61 -181 0
-62 -177 0
-61 -182 0
-58 -180 0
-62 -182 0
-60 -179 0
-57 -177 0
-59 -180 0
-60 -182 0
-58 -176 0
-59 -177 0
-62 -180 0
-60 -180 0
-58 -181 0
-58 -178 0
-63 -181 0
-59 -178 0
-60 -176 0
-58 -179 0
-63 -178 0
-62 -185 0
-59 -188 0
-59 -183 0
-59 -186 0
-59 -185 0
-60 -185 0
-62 -183 0
-58 -189 0
-63 -187 0
-63 -184 0
-57 -183 0
-57 -185 0
-61 -187 0
-62 -186 0
-62 -184 0
-61 -186 0
-60 -186 0
-59 -189 0
-63 -188 0
-62 -188 0
-60 -187 0
-61 -185 0
-57 -187 0
-61 -183 0
-69 -229 0
-65 -227 0
-68 -225 0
-69 -231 0
-67 -226 0
-70 -231 0
-67 -230 0
-67 -228 0
-70 -229 0
-66 -230 0
-68 -226 0
-67 -231 0
-69 -230 0
-65 -226 0
-64 -229 0
-67 -225 0
-68 -227 0
-64 -225 0
-70 -225 0
-69 -227 0
-66 -226 0
-65 -229 0
-70 -227 0
-65 -231 0
-77 -142 0
-71 -146 0
-76 -143 0
-72 -144 0
-73 -144 0
-73 -143 0
-74 -143 0
-73 -141 0
-76 -145 0
-74 -142 0
-71 -144 0
-71 -142 0
-75 -146 0
-71 -141 0
-74 -145 0
-73 -147 0
-74 -141 0
-74 -144 0
-72 -141 0
-74 -146 0
-75 -142 0
-72 -143 0
-73 -142 0
-75 -141 0
-73 -264 0
-74 -266 0
-76 -260 0
-74 -262 0
-74 -265 0
-74 -261 0
-72 -262 0
-74 -260 0
-75 -265 0
-77 -264 0
-74 -263 0
-74 -264 0
-73 -263 0
-71 -262 0
-75 -260 0
-77 -260 0
-73 -260 0
-72 -263 0
-73 -261 0
-71 -266 0
-72 -265 0
-73 -265 0
-76 -263 0
-75 -262 0
-76 -275 0
-72 -277 0
-71 -279 0
-77 -279 0
-71 -274 0
-71 -275 0
-75 -280 0
-76 -276 0
-73 -276 0
-74 -280 0
-77 -278 0
-74 -279 0
-71 -280 0
-74 -278 0
-75 -277 0
-75 -278 0
-74 -274 0
-71 -277 0
-77 -274 0
-76 -279 0
-72 -280 0
-76 -277 0
-73 -275 0
-75 -276 0
-80 -98 0
-81 -97 0
-83 -94 0
-81 -94 0
-81 -95 0
-83 -98 0
-82 -92 0
-78 -95 0
-80 -92 0
-82 -93 0
-79 -98 0
-83 -92 0
-84 -94 0
-78 -92 0
-78 -93 0
-80 -96 0
-79 -96 0
-79 -93 0
-81 -92 0
-81 -93 0
-79 -92 0
-80 -93 0
-84 -92 0
-79 -97 0
-84 -126 0
-84 -122 0
-78 -126 0
-84 -120 0
-78 -121 0
-81 -120 0
-81 -121 0
-84 -125 0
-83 -122 0
-83 -125 0
-83 -121 0
-80 -121 0
-82 -125 0
-80 -124 0
-80 -125 0
-82 -121 0
-80 -120 0
-78 -125 0
-83 -126 0
-84 -124 0
-78 -124 0
-83 -120 0
-83 -124 0
-78 -122 0
-78 -153 0
-79 -149 0
-79 -153 0
-84 -152 0
-78 -149 0
-82 -152 0
-78 -150 0
-81 -150 0
-82 -148 0
-79 -150 0
-83 -148 0
-82 -153 0
-81 -151 0
-80 -154 0
-83 -152 0
-80 -151 0
-84 -154 0
-81 -148 0
-81 -153 0
-82 -149 0
-82 -150 0
-83 -150 0
-84 -148 0
-80 -150 0
-78 -177 0
-84 -178 0
-80 -178 0
-82 -181 0
-83 -181 0
-78 -178 0
-81 -182 0
-79 -182 0
-80 -181 0
-82 -180 0
-84 -179 0
-81 -180 0
-78 -176 0
-82 -182 0
-78 -182 0
-84 -177 0
-80 -177 0
-84 -182 0
-81 -181 0
-80 -180 0
-84 -180 0
-82 -178 0
-78 -180 0
-79 -179 0
-83 -247 0
-83 -252 0
-83 -246 0
-82 -249 0
-80 -248 0
-78 -248 0
-81 -246 0
-81 -249 0
-83 -250 0
-84 -246 0
-82 -248 0
-79 -249 0
-82 -247 0
-80 -246 0
-78 -249 0
-80 -249 0
-81 -252 0
-81 -250 0
-84 -252 0
-82 -252 0
-79 -250 0
-84 -249 0
-78 -246 0
-82 -246 0
-78 -306 0
-82 -303 0
-80 -302 0
-81 -308 0
-80 -308 0
-82 -306 0
-83 -305 0
-82 -307 0
-80 -306 0
-81 -307 0
-82 -304 0
-81 -306 0
-84 -305 0
-84 -306 0
-83 -308 0
-84 -304 0
-80 -307 0
-79 -306 0
-79 -303 0
-79 -308 0
-84 -308 0
-79 -304 0
-81 -303 0
-80 -304 0
-91 -97 0
-86 -97 0
-88 -94 0
-87 -97 0
-90 -98 0
-89 -96 0
-91 -94 0
-86 -96 0
-85 -96 0
-89 -93 0
-90 -92 0
-85 -97 0
-89 -92 0
-87 -98 0
-87 -93 0
-90 -96 0
-88 -97 0
-90 -94 0
-91 -93 0
-86 -94 0
-91 -92 0
-86 -92 0
-89 -95 0
-87 -95 0
-93 -216 0
-95 -214 0
-95 -213 0
-93 -211 0
-98 -214 0
-96 -217 0
-97 -211 0
-98 -212 0
-96 -216 0
-98 -215 0
-95 -217 0
-94 -216 0
-96 -211 0
-92 -212 0
-97 -215 0
-98 -213 0
-93 -215 0
-92 -216 0
-95 -212 0
-94 -217 0
-93 -212 0
-97 -213 0
-94 -215 0
-94 -211 0
-98 -272 0
-95 -273 0
-96 -267 0
-94 -269 0
-95 -272 0
-92 -272 0
-98 -271 0
-96 -272 0
-95 -271 0
-96 -271 0
-97 -272 0
-92 -269 0
-94 -267 0
-97 -270 0
-93 -272 0
-97 -273 0
-95 -270 0
-93 -270 0
-92 -268 0
-92 -270 0
-95 -267 0
-96 -273 0
-93 -271 0
-94 -272 0
-106 -119 0
-109 -114 0
-107 -116 0
-109 -119 0
-106 -114 0
-107 -117 0
-107 -115 0
-111 -116 0
-107 -118 0
-112 -118 0
-111 -118 0
-111 -115 0
-111 -119 0
-109 -116 0
-106 -118 0
-108 -113 0
-106 -117 0
-108 -117 0
-111 -114 0
-109 -118 0
-107 -113 0
-112 -119 0
-106 -116 0
-110 -115 0
-111 -120 0
-108 -125 0
-107 -125 0
-110 -122 0
-106 -126 0
-106 -124 0
-107 -126 0
-108 -121 0
-106 -123 0
-109 -124 0
-110 -126 0
-109 -121 0
-112 -122 0
-112 -126 0
-109 -123 0
-109 -125 0
-110 -123 0
-108 -126 0
-107 -122 0
-110 -121 0
-107 -124 0
-110 -124 0
-108 -122 0
-112 -123 0
-112 -210 0
-107 -205 0
-107 -210 0
-110 -205 0
-112 -205 0
-107 -208 0
-108 -207 0
-108 -206 0
-112 -207 0
-106 -209 0
-106 -207 0
-108 -209 0
-109 -209 0
-109 -207 0
-107 -207 0
-110 -204 0
-112 -206 0
-111 -210 0
-106 -208 0
-109 -206 0
-111 -208 0
-111 -209 0
-107 -209 0
-111 -205 0
-110 -236 0
-109 -232 0
-109 -237 0
-108 -236 0
-108 -234 0
-109 -236 0
-111 -237 0
-106 -235 0
-107 -233 0
-109 -238 0
-108 -235 0
-112 -233 0
-111 -238 0
-112 -238 0
-106 -234 0
-107 -234 0
-110 -235 0
-110 -234 0
-111 -236 0
-109 -235 0
-111 -234 0
-106 -237 0
-111 -233 0
-107 -232 0
-119 -215 0
-116 -216 0
-117 -211 0
-116 -211 0
-119 -213 0
-114 -214 0
-114 -215 0
-118 -215 0
-117 -215 0
-118 -211 0
-114 -217 0
-113 -214 0
-115 -216 0
-118 -216 0
-116 -214 0
-118 -212 0
-115 -214 0
-116 -212 0
-117 -216 0
-118 -214 0
-119 -214 0
-119 -211 0
-113 -215 0
-115 -212 0
-115 -266 0
-119 -263 0
-116 -264 0
-117 -264 0
-113 -266 0
-114 -262 0
-119 -264 0
-115 -263 0
-119 -266 0
-118 -266 0
-114 -265 0
-116 -261 0
-116 -265 0
-119 -265 0
-119 -261 0
-115 -262 0
-113 -264 0
-114 -260 0
-116 -260 0
-116 -266 0
-113 -260 0
-118 -260 0
-117 -262 0
-113 -263 0
-113 -272 0
-114 -268 0
-115 -269 0
-116 -273 0
-119 -273 0
-113 -269 0
-115 -271 0
-119 -269 0
-115 -268 0
-117 -269 0
-116 -268 0
-117 -271 0
-114 -271 0
-113 -273 0
-114 -273 0
-117 -272 0
-119 -271 0
-117 -270 0
-118 -267 0
-113 -267 0
-113 -271 0
-116 -267 0
-115 -273 0
-113 -270 0
-119 -300 0
-114 -298 0
-116 -296 0
-115 -299 0
-114 -301 0
-119 -296 0
-119 -298 0
-113 -297 0
-118 -299 0
-116 -299 0
-113 -298 0
-114 -296 0
-119 -297 0
-117 -297 0
-118 -296 0
-116 -295 0
-119 -299 0
-117 -301 0
-115 -301 0
-113 -300 0
-115 -296 0
-115 -298 0
-115 -297 0
-114 -299 0
-125 -160 0
-120 -158 0
-121 -157 0
-120 -157 0
-124 -159 0
-126 -155 0
-120 -159 0
-125 -155 0
-125 -157 0
-126 -159 0
-124 -160 0
-123 -161 0
-125 -161 0
-122 -156 0
-123 -160 0
-124 -156 0
-123 -159 0
-126 -158 0
-122 -161 0
-121 -156 0
-123 -155 0
-121 -160 0
-123 -157 0
-122 -160 0
-131 -184 0
-127 -185 0
-131 -183 0
-132 -185 0
-129 -184 0
-129 -185 0
-133 -188 0
-133 -189 0
-127 -187 0
-132 -187 0
-130 -184 0
-130 -183 0
-131 -189 0
-132 -183 0
-130 -189 0
-132 -188 0
-127 -186 0
-128 -184 0
-131 -188 0
-128 -186 0
-128 -187 0
-130 -186 0
-131 -185 0
-130 -185 0
-131 -204 0
-130 -208 0
-128 -205 0
-128 -207 0
-131 -206 0
-132 -207 0
-132 -209 0
-132 -205 0
-132 -204 0
-129 -209 0
-127 -208 0
-127 -210 0
-127 -209 0
-132 -206 0
-133 -205 0
-131 -210 0
-128 -210 0
-129 -205 0
-130 -205 0
-128 -208 0
-129 -204 0
-132 -208 0
-127 -207 0
-129 -206 0
-136 -256 0
-140 -258 0
-137 -254 0
-135 -257 0
-137 -255 0
-137 -256 0
-139 -253 0
-140 -256 0
-135 -258 0
-134 -259 0
-138 -253 0
-136 -255 0
-135 -255 0
-137 -259 0
-139 -256 0
-136 -257 0
-134 -253 0
-136 -253 0
-134 -255 0
-135 -253 0
-136 -259 0
-134 -254 0
-136 -254 0
-140 -254 0
-135 -262 0
-139 -260 0
-134 -265 0
-134 -262 0
-139 -264 0
-140 -263 0
-138 -260 0
-134 -260 0
-137 -260 0
-140 -266 0
-138 -265 0
-136 -264 0
-138 -266 0
-135 -266 0
-139 -266 0
-134 -261 0
-137 -264 0
-139 -262 0
-136 -262 0
-140 -260 0
-134 -266 0
-136 -265 0
-140 -264 0
-136 -266 0
-142 -184 0
-142 -185 0
-141 -185 0
-146 -187 0
-142 -188 0
-141 -184 0
-147 -187 0
-145 -186 0
-145 -185 0
-142 -187 0
-144 -187 0
-147 -189 0
-143 -184 0
-145 -188 0
-143 -189 0
-144 -188 0
-144 -183 0
-143 -188 0
-141 -187 0
-143 -185 0
-143 -187 0
-146 -189 0
-147 -188 0
-147 -183 0
-147 -197 0
-145 -199 0
-145 -201 0
-141 -198 0
-143 -200 0
-141 -203 0
-143 -201 0
-141 -202 0
-143 -199 0
-146 -203 0
-144 -202 0
-142 -198 0
-141 -200 0
-143 -202 0
-147 -199 0
-141 -201 0
-146 -197 0
-146 -202 0
-143 -198 0
-145 -200 0
-145 -203 0
-144 -198 0
-146 -200 0
-141 -199 0
-150 -264 0
-151 -264 0
-148 -262 0
-149 -260 0
-154 -261 0
-153 -261 0
-153 -266 0
-152 -260 0
-154 -263 0
-152 -262 0
-148 -261 0
-153 -263 0
-150 -260 0
-150 -262 0
-152 -264 0
-154 -260 0
-148 -266 0
-148 -260 0
-148 -265 0
-151 -263 0
-151 -265 0
-152 -261 0
-151 -262 0
-149 -265 0
-156 -162 0
-158 -162 0
-159 -167 0
-161 -164 0
-159 -164 0
-158 -164 0
-159 -166 0
-156 -168 0
-160 -167 0
-155 -163 0
-161 -162 0
-160 -162 0
-156 -165 0
-158 -168 0
-156 -163 0
-159 -165 0
-156 -166 0
-160 -163 0
-160 -164 0
-161 -165 0
-155 -162 0
-160 -168 0
-161 -163 0
-157 -163 0
-156 -185 0
-155 -186 0
-159 -187 0
-155 -188 0
-159 -185 0
-155 -185 0
-161 -187 0
-156 -186 0
-157 -188 0
-161 -189 0
-161 -183 0
-158 -188 0
-159 -189 0
-156 -183 0
-156 -184 0
-161 -185 0
-160 -186 0
-159 -184 0
-157 -189 0
-157 -186 0
-160 -188 0
-160 -185 0
-157 -183 0
-156 -187 0
-155 -209 0
-156 -208 0
-156 -206 0
-158 -210 0
-156 -209 0
-158 -208 0
-159 -204 0
-157 -209 0
-160 -206 0
-155 -207 0
-155 -210 0
-156 -204 0
-158 -206 0
-156 -205 0
-157 -206 0
-160 -209 0
-155 -206 0
-156 -210 0
-160 -207 0
-158 -205 0
-157 -210 0
-161 -208 0
-161 -204 0
-160 -205 0
-164 -199 0
-165 -198 0
-168 -201 0
-163 -198 0
-167 -200 0
-167 -199 0
-164 -197 0
-168 -203 0
-167 -198 0
-166 -197 0
-165 -202 0
-167 -201 0
-166 -199 0
-163 -199 0
-168 -199 0
-163 -201 0
-165 -200 0
-163 -200 0
-166 -198 0
-166 -202 0
-166 -200 0
-168 -198 0
-168 -202 0
-165 -199 0
-164 -273 0
-168 -272 0
-168 -269 0
-165 -267 0
-163 -269 0
-162 -272 0
-168 -270 0
-163 -272 0
-167 -272 0
-163 -268 0
-165 -270 0
-162 -273 0
-163 -267 0
-167 -268 0
-164 -271 0
-166 -268 0
-165 -272 0
-167 -267 0
-163 -271 0
-162 -269 0
-164 -270 0
-166 -269 0
-167 -271 0
-168 -273 0
-179 -211 0
-177 -212 0
-181 -215 0
-182 -212 0
-180 -216 0
-180 -212 0
-176 -214 0
-178 -216 0
-178 -212 0
-180 -217 0
-176 -217 0
-181 -211 0
-181 -213 0
-179 -213 0
-179 -216 0
-181 -212 0
-177 -214 0
-178 -217 0
-180 -215 0
-182 -215 0
-178 -215 0
-179 -215 0
-177 -213 0
-177 -216 0
-180 -218 0
-176 -224 0
-176 -219 0
-179 -220 0
-180 -220 0
-182 -221 0
-180 -223 0
-178 -224 0
-182 -222 0
-177 -218 0
-176 -218 0
-176 -220 0
-182 -220 0
-179 -222 0
-180 -222 0
-182 -218 0
-181 -220 0
-177 -219 0
-177 -221 0
-177 -224 0
-178 -219 0
-178 -218 0
-176 -222 0
-179 -221 0
-179 -269 0
-179 -267 0
-176 -273 0
-180 -270 0
-180 -268 0
-181 -267 0
-181 -271 0
-182 -270 0
-180 -272 0
-177 -272 0
-182 -271 0
-179 -272 0
-181 -273 0
-177 -270 0
-182 -269 0
-176 -270 0
-177 -269 0
-181 -269 0
-177 -273 0
-179 -271 0
-178 -272 0
-181 -268 0
-177 -267 0
-182 -267 0
-179 -287 0
-182 -282 0
-178 -283 0
-178 -285 0
-181 -286 0
-182 -287 0
-179 -284 0
-176 -281 0
-180 -283 0
-176 -282 0
-177 -281 0
-180 -281 0
-180 -285 0
-182 -285 0
-178 -286 0
-181 -287 0
-176 -285 0
-177 -283 0
-178 -287 0
-180 -282 0
-176 -283 0
-176 -286 0
-180 -287 0
-177 -287 0
-184 -271 0
-186 -268 0
-187 -267 0
-187 -272 0
-184 -268 0
-189 -273 0
-185 -271 0
-186 -269 0
-188 -270 0
-188 -271 0
-187 -271 0
-186 -270 0
-189 -269 0
-183 -271 0
-184 -273 0
-183 -267 0
-187 -270 0
-185 -270 0
-185 -269 0
-189 -267 0
-188 -272 0
-186 -273 0
-185 -267 0
-183 -272 0
-192 -202 0
-191 -200 0
-193 -203 0
-190 -202 0
-195 -202 0
-191 -201 0
-194 -197 0
-194 -202 0
-196 -203 0
-193 -201 0
-191 -203 0
-196 -198 0
-190 -201 0
-193 -200 0
-194 -198 0
-194 -203 0
-192 -199 0
-192 -201 0
-190 -197 0
-195 -203 0
-196 -201 0
-195 -197 0
-195 -201 0
-196 -200 0
-195 -300 0
-191 -295 0
-196 -298 0
-192 -295 0
-191 -300 0
-194 -298 0
-192 -299 0
-191 -296 0
-193 -296 0
-191 -297 0
-191 -299 0
-196 -297 0
-196 -300 0
-191 -298 0
-193 -299 0
-196 -296 0
-193 -297 0
-190 -296 0
-190 -295 0
-194 -295 0
-190 -298 0
-194 -300 0
-194 -301 0
-195 -299 0
-200 -236 0
-197 -232 0
-201 -235 0
-199 -234 0
-197 -238 0
-203 -234 0
-198 -237 0
-201 -232 0
-198 -233 0
-203 -238 0
-200 -232 0
-197 -234 0
-201 -237 0
-201 -233 0
-203 -233 0
-199 -237 0
-197 -236 0
-197 -235 0
-201 -234 0
-203 -236 0
-201 -238 0
-203 -232 0
-202 -234 0
-202 -238 0
-205 -295 0
-207 -295 0
-209 -295 0
-208 -298 0
-204 -299 0
-208 -296 0
-206 -301 0
-210 -298 0
-205 -298 0
-210 -300 0
-209 -301 0
-206 -296 0
-204 -298 0
-207 -296 0
-209 -297 0
-210 -299 0
-210 -295 0
-207 -299 0
-208 -300 0
-209 -298 0
-204 -301 0
-206 -299 0
-208 -299 0
-208 -295 0
-213 -286 0
-217 -285 0
-216 -286 0
-216 -283 0
-212 -286 0
-214 -282 0
-216 -284 0
-216 -287 0
-213 -282 0
-217 -284 0
-211 -286 0
-215 -287 0
-214 -283 0
-212 -283 0
-214 -285 0
-213 -285 0
-212 -284 0
-212 -281 0
-217 -286 0
-212 -282 0
-211 -287 0
-217 -282 0
-215 -285 0
-211 -282 0
-211 -305 0
-212 -304 0
-212 -308 0
-213 -303 0
-217 -305 0
-212 -302 0
-217 -303 0
-213 -308 0
-213 -302 0
-217 -306 0
-214 -306 0
-214 -305 0
-212 -303 0
-217 -307 0
-211 -303 0
-215 -306 0
-216 -306 0
-211 -304 0
-212 -306 0
-215 -302 0
-215 -304 0
-216 -308 0
-212 -307 0
-216 -304 0
-244 -271 0
-244 -267 0
-240 -273 0
-242 -269 0
-243 -269 0
-245 -270 0
-239 -273 0
-243 -271 0
-244 -269 0
-243 -268 0
-244 -270 0
-239 -268 0
-242 -270 0
-241 -268 0
-239 -271 0
-241 -272 0
-243 -273 0
-242 -271 0
-240 -272 0
-240 -269 0
-242 -272 0
-242 -268 0
-245 -269 0
-240 -267 0
-239 -280 0
-241 -275 0
-242 -276 0
-244 -275 0
-239 -275 0
-239 -277 0
-240 -277 0
-240 -274 0
-245 -279 0
-244 -278 0
-241 -277 0
-240 -275 0
-242 -277 0
-242 -275 0
-243 -276 0
-241 -278 0
-243 -277 0
-245 -276 0
-240 -279 0
-240 -278 0
-241 -274 0
-240 -276 0
-240 -280 0
-242 -278 0
-240 -301 0
-239 -296 0
-244 -298 0
-242 -295 0
-244 -295 0
-239 -295 0
-244 -299 0
-244 -301 0
-241 -300 0
-239 -300 0
-241 -298 0
-245 -297 0
-240 -297 0
-243 -299 0
-243 -298 0
-241 -301 0
-245 -298 0
-240 -295 0
-245 -296 0
-241 -299 0
-240 -298 0
-239 -301 0
-240 -299 0
-243 -297 0
-250 -260 0
-252 -264 0
-249 -261 0
-247 -261 0
-246 -262 0
-247 -264 0
-251 -265 0
-252 -261 0
-246 -260 0
-251 -260 0
-250 -264 0
-246 -266 0
-251 -262 0
-249 -265 0
-247 -263 0
-251 -263 0
-252 -266 0
-250 -266 0
-248 -263 0
-250 -265 0
-250 -261 0
-246 -261 0
-249 -260 0
-249 -264 0
-250 -291 0
-249 -291 0
-248 -288 0
-250 -288 0
-247 -292 0
-247 -294 0
-246 -290 0
-251 -289 0
-250 -292 0
-249 -289 0
-249 -294 0
-252 -290 0
-248 -292 0
-250 -293 0
-246 -294 0
-249 -293 0
-248 -290 0
-247 -290 0
-251 -294 0
-247 -291 0
-252 -289 0
-247 -293 0
-252 -292 0
-252 -288 0
-257 -265 0
-256 -264 0
-258 -266 0
-259 -264 0
-255 -260 0
-253 -262 0
-259 -262 0
-253 -264 0
-254 -265 0
-256 -261 0
-259 -266 0
-253 -266 0
-257 -262 0
-253 -260 0
-256 -263 0
-258 -264 0
-255 -263 0
-256 -266 0
-258 -261 0
-258 -262 0
-254 -263 0
-255 -264 0
-254 -266 0
-256 -262 0
-270 -274 0
-268 -278 0
-270 -276 0
-268 -275 0
-267 -279 0
-273 -276 0
-271 -278 0
-273 -278 0
-272 -276 0
-270 -275 0
-271 -277 0
-272 -280 0
-269 -274 0
-267 -274 0
-268 -274 0
-272 -278 0
-269 -279 0
-271 -274 0
-270 -278 0
-267 -277 0
-269 -277 0
-269 -280 0
-268 -280 0
-267 -276 0
-275 -282 0
-274 -286 0
-277 -284 0
-278 -284 0
-280 -282 0
-276 -287 0
-274 -282 0
-280 -284 0
-278 -281 0
-274 -285 0
-278 -282 0
-276 -283 0
-277 -282 0
-275 -284 0
-274 -287 0
-275 -281 0
-279 -284 0
-279 -285 0
-276 -284 0
-280 -285 0
-280 -286 0
-275 -283 0
-279 -287 0
-280 -287 0
-276 -306 0
-280 -307 0
-274 -305 0
-277 -306 0
-278 -308 0
-280 -304 0
-274 -303 0
-276 -308 0
-279 -307 0
-277 -308 0
-274 -308 0
-279 -308 0
-277 -305 0
-278 -307 0
-275 -308 0
-274 -304 0
-279 -306 0
-279 -302 0
-275 -304 0
-280 -302 0
-279 -303 0
-276 -303 0
-278 -302 0
-276 -304 0
-290 -299 0
-290 -297 0
-292 -299 0
-292 -296 0
-291 -299 0
-292 -295 0
-288 -299 0
-291 -296 0
-294 -298 0
-292 -300 0
-288 -296 0
-290 -300 0
-289 -301 0
-289 -296 0
-289 -298 0
-294 -300 0
-290 -296 0
-293 -297 0
-294 -296 0
-288 -300 0
-293 -296 0
-292 -297 0
-289 -295 0
-293 -301 0
-297 -308 0
-296 -307 0
-299 -308 0
-299 -306 0
-295 -307 0
-298 -302 0
-300 -308 0
-301 -303 0
-296 -306 0
-299 -305 0
-298 -308 0
-298 -306 0
-300 -302 0
-298 -307 0
-300 -304 0
-301 -306 0
-295 -306 0
-296 -304 0
-296 -303 0
-300 -303 0
-297 -302 0
-298 -303 0
-299 -304 0
-300 -305 0
